100
32
13
28
22
5
13
9
26
18
26
29
28
1
26
2
21
12
8
31
13
3
30
26
11
20
10
16
13
13
17
9
12
16
16
9
8
10
29
21
2
21
5
6
24
2
17
21
18
20
1
4
12
8
1
1
15
3
15
12
31
2
20
1
17
4
29
11
2
3
8
1
15
30
24
8
8
1
21
20
4
20
1
1
11
3
26
7
7
19
3
12
8
31
1
1
4
3
6
5
2
1